EA489   7.638  7.638  3.615 90.000 90.000 60.000 Sym.group: 143
1.0000
    3.819219     6.615071     0.000000
   -3.819212     6.615075     0.000000
    0.000000     0.000000     3.615177
   Ca  Cl   H     O
   1    2   12    6
Direct
    0.333333     0.333334     0.515917
    0.666667     0.666666     0.001620
    0.000000     0.000000     0.079105
    0.450459     0.973035     0.047931
    0.211940     0.105188     0.978015
    0.576504     0.450459     0.047931
    0.682873     0.211939     0.978015
    0.973035     0.576504     0.047931
    0.105189     0.682872     0.978015
    0.684646     0.885225     0.641100
    0.790403     0.986009     0.418286
    0.430129     0.684646     0.641100
    0.223587     0.790403     0.418286
    0.885225     0.430129     0.641100
    0.986009     0.223587     0.418286
    0.335872     0.113084     0.019284
    0.551044     0.335872     0.019284
    0.113084     0.551044     0.019284
    0.660948     0.012915     0.529836
    0.326137     0.660948     0.529836
    0.012915     0.326137     0.529836